row=10;
column=10;
Board=[|0,0,0,0,4,0,0,0,0,0|4,6,0,0,0,0,0,0,0,0|0,0,0,0,0,0,0,0,2,0|0,0,0,0,0,0,0,0,0,0|0,0,0,0,0,0,0,0,0,0|0,0,0,1,0,0,0,0,0,0|0,0,0,0,0,0,0,0,0,0|0,0,2,0,0,0,0,0,0,0|0,0,0,0,0,0,0,0,0,0|0,0,0,0,0,0,0,0,0,0|];
right = [2,3,1,4,1,1,2,2,2,2];
bottom = [4,1,4,1,2,2,0,0,3,3];
